17	4	3
10	13	14	21	18	41	3	
0	0	0	0	0	8	6	2	2	10	9	3	2	3	4
1	0	0	0	7	2	7	5	4	5	9	3	8	10	16
6	3	0	0	0	9	6	5	4	6	10	2	11	17
4	6	0	0	0	2	2	3	4	2	7	2	5	8
8	8	0	0	0	6	5	6	6	3	4	3	6	7	17
100	0	0	0	7	1	10	9	2	2	9	3	12	15	17
25	0	0	6	0	10	4	6	5	7	10	3	11	13	14
100	0	0	0	3	3	6	5	7	9	10	3	9	12	17
75	0	9	0	0	7	1	2	9	5	4	2	14	17
250	0	0	7	0	6	10	8	2	6	1	2	15	17
75	0	0	0	8	5	6	10	4	8	2	2	16	17
75	9	0	0	0	3	8	5	9	2	2	2	17	17
1	0	8	0	0	8	5	7	3	2	6	2	16	17
7	0	0	0	10	2	8	7	4	7	1	1	17
4	0	0	0	1	7	2	10	5	3	5	1	17
10	0	0	0	10	5	8	1	5	2	9	1	17
0	0	0	0	0	7	5	6	1	3	8	0
